(set-info :smt-lib-version 2.6)
(set-logic QF_NIA)
(set-info :source |
Generated by: Cristina Borralleras, Daniel Larraz, Albert Oliveras, Enric Rodriguez-Carbonell, Albert Rubio
Generated on: 2017-04-27
Generator: VeryMax
Application: Termination proving
Target solver: barcelogic
|)
(set-info :license "https://creativecommons.org/licenses/by/4.0/")
(set-info :category "industrial")
(set-info :status unknown)
(declare-fun Nl2main_i1 () Int)
(declare-fun Nl2main_j1 () Int)
(declare-fun Nl2main_i2 () Int)
(declare-fun Nl2main_j2 () Int)
(declare-fun Nl2main_i3 () Int)
(declare-fun Nl2main_j3 () Int)
(declare-fun lam0n0 () Int)
(declare-fun lam0n1 () Int)
(declare-fun lam0n3 () Int)
(declare-fun lam0n4 () Int)
(declare-fun lam0n5 () Int)
(declare-fun Nl2CT1 () Int)
(declare-fun Nl2CT2 () Int)
(declare-fun Nl2CT3 () Int)
(declare-fun lam0n2 () Int)
(declare-fun lam1n0 () Int)
(declare-fun lam1n1 () Int)
(declare-fun lam1n3 () Int)
(declare-fun lam1n4 () Int)
(declare-fun lam1n5 () Int)
(declare-fun lam1n2 () Int)
(declare-fun lam2n0 () Int)
(declare-fun lam2n1 () Int)
(declare-fun lam2n3 () Int)
(declare-fun lam2n4 () Int)
(declare-fun lam2n5 () Int)
(declare-fun lam2n2 () Int)
(declare-fun lam3n0 () Int)
(declare-fun lam3n1 () Int)
(declare-fun lam3n3 () Int)
(declare-fun lam3n4 () Int)
(declare-fun lam3n5 () Int)
(declare-fun lam3n2 () Int)
(declare-fun lam4n0 () Int)
(declare-fun lam4n1 () Int)
(declare-fun lam4n2 () Int)
(declare-fun lam4n3 () Int)
(declare-fun lam4n4 () Int)
(declare-fun lam5n0 () Int)
(declare-fun lam5n1 () Int)
(declare-fun lam5n2 () Int)
(declare-fun lam5n3 () Int)
(declare-fun lam5n4 () Int)
(declare-fun lam6n0 () Int)
(declare-fun lam6n1 () Int)
(declare-fun lam6n2 () Int)
(declare-fun lam6n3 () Int)
(declare-fun lam6n4 () Int)
(declare-fun lam7n0 () Int)
(declare-fun lam7n1 () Int)
(declare-fun lam7n2 () Int)
(declare-fun lam7n3 () Int)
(declare-fun lam8n0 () Int)
(declare-fun lam8n1 () Int)
(declare-fun lam8n2 () Int)
(declare-fun lam8n3 () Int)
(declare-fun lam9n0 () Int)
(declare-fun lam9n1 () Int)
(declare-fun lam9n2 () Int)
(declare-fun lam9n3 () Int)
(declare-fun lam10n0 () Int)
(declare-fun lam10n1 () Int)
(declare-fun lam10n2 () Int)
(declare-fun lam10n3 () Int)
(declare-fun lam11n0 () Int)
(declare-fun lam11n1 () Int)
(declare-fun lam11n2 () Int)
(declare-fun lam11n3 () Int)
(declare-fun lam12n0 () Int)
(declare-fun lam12n1 () Int)
(declare-fun lam12n2 () Int)
(declare-fun lam12n3 () Int)
(declare-fun lam13n0 () Int)
(declare-fun lam13n1 () Int)
(declare-fun lam13n2 () Int)
(declare-fun lam13n3 () Int)
(declare-fun lam14n0 () Int)
(declare-fun lam14n1 () Int)
(declare-fun lam14n2 () Int)
(declare-fun lam14n3 () Int)
(declare-fun lam15n0 () Int)
(declare-fun lam15n1 () Int)
(declare-fun lam15n2 () Int)
(declare-fun lam15n3 () Int)
(declare-fun lam16n0 () Int)
(declare-fun lam16n1 () Int)
(declare-fun lam16n2 () Int)
(declare-fun lam16n3 () Int)
(declare-fun lam17n0 () Int)
(declare-fun lam17n1 () Int)
(declare-fun lam17n2 () Int)
(declare-fun lam17n3 () Int)
(declare-fun lam18n0 () Int)
(declare-fun lam18n1 () Int)
(declare-fun lam18n2 () Int)
(declare-fun lam18n3 () Int)
(declare-fun main_i () Int)
(declare-fun main_j () Int)
(declare-fun undef3 () Int)
(declare-fun undef4 () Int)
(declare-fun lam22n0 () Int)
(declare-fun lam22n1 () Int)
(declare-fun lam22n3 () Int)
(declare-fun lam22n4 () Int)
(declare-fun lam22n5 () Int)
(declare-fun RFN1_CT () Int)
(declare-fun RFN1_main_i () Int)
(declare-fun RFN1_main_j () Int)
(declare-fun lam22n2 () Int)
(declare-fun lam20n0 () Int)
(declare-fun lam20n1 () Int)
(declare-fun lam20n3 () Int)
(declare-fun lam20n4 () Int)
(declare-fun lam20n5 () Int)
(declare-fun lam20n2 () Int)
(declare-fun lam21n0 () Int)
(declare-fun lam21n1 () Int)
(declare-fun lam21n3 () Int)
(declare-fun lam21n4 () Int)
(declare-fun lam21n5 () Int)
(declare-fun lam21n2 () Int)
(declare-fun lam19n0 () Int)
(declare-fun lam19n1 () Int)
(declare-fun lam19n3 () Int)
(declare-fun lam19n4 () Int)
(declare-fun lam19n5 () Int)
(declare-fun lam19n2 () Int)
(assert ( and ( <= ( - 1 ) Nl2main_i1 ) ( <= Nl2main_i1 1 ) ( <= ( - 1 ) Nl2main_j1 ) ( <= Nl2main_j1 1 ) ( <= ( - 1 ) Nl2main_i2 ) ( <= Nl2main_i2 1 ) ( <= ( - 1 ) Nl2main_j2 ) ( <= Nl2main_j2 1 ) ( <= ( - 1 ) Nl2main_i3 ) ( <= Nl2main_i3 1 ) ( <= ( - 1 ) Nl2main_j3 ) ( <= Nl2main_j3 1 ) ))
(assert ( or ( and ( >= lam0n0 0 ) ( >= lam0n1 0 ) ( >= lam0n3 0 ) ( >= lam0n4 0 ) ( >= lam0n5 0 ) ( > ( + ( * 1 lam0n0 ) ( * 1 lam0n1 ) ( * Nl2CT1 lam0n3 ) ( * Nl2CT2 lam0n4 ) ( * Nl2CT3 lam0n5 ) ( - 1 ) ) 0 ) ( = ( + ( * 1 lam0n0 ) ( * 1 lam0n2 ) ( * Nl2main_i1 lam0n3 ) ( * Nl2main_i2 lam0n4 ) ( * Nl2main_i3 lam0n5 ) ) 0 ) ( = ( + ( * ( - 1 ) lam0n0 ) ( * ( - 1 ) lam0n1 ) ( * 1 lam0n2 ) ( * Nl2main_j1 lam0n3 ) ( * Nl2main_j2 lam0n4 ) ( * Nl2main_j3 lam0n5 ) ) 0 ) ) ( and ( >= lam1n0 0 ) ( >= lam1n1 0 ) ( >= lam1n3 0 ) ( >= lam1n4 0 ) ( >= lam1n5 0 ) ( > ( + ( * 1 lam1n0 ) ( * 1 lam1n1 ) ( * Nl2CT1 lam1n3 ) ( * Nl2CT2 lam1n4 ) ( * Nl2CT3 lam1n5 ) ( - 1 ( + ( + Nl2CT1 ( * Nl2main_i1 ( - 1 ) ) ) ( * Nl2main_j1 1 ) ) ) ) 0 ) ( = ( + ( * 1 lam1n0 ) ( * 1 lam1n2 ) ( * Nl2main_i1 lam1n3 ) ( * Nl2main_i2 lam1n4 ) ( * Nl2main_i3 lam1n5 ) ( - ( + 0 ( * Nl2main_i1 1 ) ) ) ) 0 ) ( = ( + ( * ( - 1 ) lam1n0 ) ( * ( - 1 ) lam1n1 ) ( * 1 lam1n2 ) ( * Nl2main_j1 lam1n3 ) ( * Nl2main_j2 lam1n4 ) ( * Nl2main_j3 lam1n5 ) ( - ( + 0 ( * Nl2main_j1 1 ) ) ) ) 0 ) ) ))
(assert ( or ( and ( >= lam0n0 0 ) ( >= lam0n1 0 ) ( >= lam0n3 0 ) ( >= lam0n4 0 ) ( >= lam0n5 0 ) ( > ( + ( * 1 lam0n0 ) ( * 1 lam0n1 ) ( * Nl2CT1 lam0n3 ) ( * Nl2CT2 lam0n4 ) ( * Nl2CT3 lam0n5 ) ( - 1 ) ) 0 ) ( = ( + ( * 1 lam0n0 ) ( * 1 lam0n2 ) ( * Nl2main_i1 lam0n3 ) ( * Nl2main_i2 lam0n4 ) ( * Nl2main_i3 lam0n5 ) ) 0 ) ( = ( + ( * ( - 1 ) lam0n0 ) ( * ( - 1 ) lam0n1 ) ( * 1 lam0n2 ) ( * Nl2main_j1 lam0n3 ) ( * Nl2main_j2 lam0n4 ) ( * Nl2main_j3 lam0n5 ) ) 0 ) ) ( and ( >= lam2n0 0 ) ( >= lam2n1 0 ) ( >= lam2n3 0 ) ( >= lam2n4 0 ) ( >= lam2n5 0 ) ( > ( + ( * 1 lam2n0 ) ( * 1 lam2n1 ) ( * Nl2CT1 lam2n3 ) ( * Nl2CT2 lam2n4 ) ( * Nl2CT3 lam2n5 ) ( - 1 ( + ( + Nl2CT2 ( * Nl2main_i2 ( - 1 ) ) ) ( * Nl2main_j2 1 ) ) ) ) 0 ) ( = ( + ( * 1 lam2n0 ) ( * 1 lam2n2 ) ( * Nl2main_i1 lam2n3 ) ( * Nl2main_i2 lam2n4 ) ( * Nl2main_i3 lam2n5 ) ( - ( + 0 ( * Nl2main_i2 1 ) ) ) ) 0 ) ( = ( + ( * ( - 1 ) lam2n0 ) ( * ( - 1 ) lam2n1 ) ( * 1 lam2n2 ) ( * Nl2main_j1 lam2n3 ) ( * Nl2main_j2 lam2n4 ) ( * Nl2main_j3 lam2n5 ) ( - ( + 0 ( * Nl2main_j2 1 ) ) ) ) 0 ) ) ))
(assert ( or ( and ( >= lam0n0 0 ) ( >= lam0n1 0 ) ( >= lam0n3 0 ) ( >= lam0n4 0 ) ( >= lam0n5 0 ) ( > ( + ( * 1 lam0n0 ) ( * 1 lam0n1 ) ( * Nl2CT1 lam0n3 ) ( * Nl2CT2 lam0n4 ) ( * Nl2CT3 lam0n5 ) ( - 1 ) ) 0 ) ( = ( + ( * 1 lam0n0 ) ( * 1 lam0n2 ) ( * Nl2main_i1 lam0n3 ) ( * Nl2main_i2 lam0n4 ) ( * Nl2main_i3 lam0n5 ) ) 0 ) ( = ( + ( * ( - 1 ) lam0n0 ) ( * ( - 1 ) lam0n1 ) ( * 1 lam0n2 ) ( * Nl2main_j1 lam0n3 ) ( * Nl2main_j2 lam0n4 ) ( * Nl2main_j3 lam0n5 ) ) 0 ) ) ( and ( >= lam3n0 0 ) ( >= lam3n1 0 ) ( >= lam3n3 0 ) ( >= lam3n4 0 ) ( >= lam3n5 0 ) ( > ( + ( * 1 lam3n0 ) ( * 1 lam3n1 ) ( * Nl2CT1 lam3n3 ) ( * Nl2CT2 lam3n4 ) ( * Nl2CT3 lam3n5 ) ( - 1 ( + ( + Nl2CT3 ( * Nl2main_i3 ( - 1 ) ) ) ( * Nl2main_j3 1 ) ) ) ) 0 ) ( = ( + ( * 1 lam3n0 ) ( * 1 lam3n2 ) ( * Nl2main_i1 lam3n3 ) ( * Nl2main_i2 lam3n4 ) ( * Nl2main_i3 lam3n5 ) ( - ( + 0 ( * Nl2main_i3 1 ) ) ) ) 0 ) ( = ( + ( * ( - 1 ) lam3n0 ) ( * ( - 1 ) lam3n1 ) ( * 1 lam3n2 ) ( * Nl2main_j1 lam3n3 ) ( * Nl2main_j2 lam3n4 ) ( * Nl2main_j3 lam3n5 ) ( - ( + 0 ( * Nl2main_j3 1 ) ) ) ) 0 ) ) ))
(assert ( or ( and ( not ( <= ( + ( * ( - 1 ) main_i ) main_j ) 0 ) ) ( not ( <= main_j 0 ) ) ( = ( + main_i main_j ) 0 ) ( = ( + main_i ( * ( - 1 ) undef3 ) ) 0 ) ( = ( + main_j ( * ( - 1 ) undef4 ) ) 0 ) ( <= ( + Nl2CT1 ( * ( + 0 Nl2main_i1 ) main_i ) ( * ( + 0 Nl2main_j1 ) main_j ) ) 0 ) ( <= ( + Nl2CT2 ( * ( + 0 Nl2main_i2 ) main_i ) ( * ( + 0 Nl2main_j2 ) main_j ) ) 0 ) ( <= ( + Nl2CT3 ( * ( + 0 Nl2main_i3 ) main_i ) ( * ( + 0 Nl2main_j3 ) main_j ) ) 0 ) ( <= ( + ( * ( - 1 ) main_i ) ( * ( - 1 ) main_j ) ) 0 ) ( <= ( + main_i main_j ) 0 ) ) ( and ( not ( <= ( + ( * ( - 1 ) main_i ) ( * ( - 1 ) main_j ) ) 0 ) ) ( not ( <= ( + ( * ( - 1 ) main_i ) main_j ) 0 ) ) ( = ( + main_i ( * ( - 1 ) undef3 ) ) 0 ) ( = ( + main_j ( * ( - 1 ) undef4 ) ) 0 ) ( <= ( + Nl2CT1 ( * ( + 0 Nl2main_i1 ) main_i ) ( * ( + 0 Nl2main_j1 ) main_j ) ) 0 ) ( <= ( + Nl2CT2 ( * ( + 0 Nl2main_i2 ) main_i ) ( * ( + 0 Nl2main_j2 ) main_j ) ) 0 ) ( <= ( + Nl2CT3 ( * ( + 0 Nl2main_i3 ) main_i ) ( * ( + 0 Nl2main_j3 ) main_j ) ) 0 ) ( <= ( + ( * ( - 1 ) main_i ) ( * ( - 1 ) main_j ) ) 0 ) ( <= ( + main_i main_j ) 0 ) ) ( and ( not ( <= ( + ( * ( - 1 ) main_i ) main_j ) 0 ) ) ( not ( <= ( + main_i main_j ) 0 ) ) ( = ( + main_i ( * ( - 1 ) undef3 ) ) 0 ) ( = ( + main_j ( * ( - 1 ) undef4 ) ) 0 ) ( <= ( + Nl2CT1 ( * ( + 0 Nl2main_i1 ) main_i ) ( * ( + 0 Nl2main_j1 ) main_j ) ) 0 ) ( <= ( + Nl2CT2 ( * ( + 0 Nl2main_i2 ) main_i ) ( * ( + 0 Nl2main_j2 ) main_j ) ) 0 ) ( <= ( + Nl2CT3 ( * ( + 0 Nl2main_i3 ) main_i ) ( * ( + 0 Nl2main_j3 ) main_j ) ) 0 ) ( <= ( + ( * ( - 1 ) main_i ) ( * ( - 1 ) main_j ) ) 0 ) ( <= ( + main_i main_j ) 0 ) ) ( and ( not ( <= ( + ( * ( - 1 ) main_i ) ( * ( - 1 ) main_j ) ) 0 ) ) ( not ( <= ( + main_i ( * ( - 1 ) main_j ) ) 0 ) ) ( = ( + main_i ( * ( - 1 ) undef3 ) ) 0 ) ( = ( + main_j ( * ( - 1 ) undef4 ) ) 0 ) ( <= ( + Nl2CT1 ( * ( + 0 Nl2main_i1 ) main_i ) ( * ( + 0 Nl2main_j1 ) main_j ) ) 0 ) ( <= ( + Nl2CT2 ( * ( + 0 Nl2main_i2 ) main_i ) ( * ( + 0 Nl2main_j2 ) main_j ) ) 0 ) ( <= ( + Nl2CT3 ( * ( + 0 Nl2main_i3 ) main_i ) ( * ( + 0 Nl2main_j3 ) main_j ) ) 0 ) ( <= ( + ( * ( - 1 ) main_i ) ( * ( - 1 ) main_j ) ) 0 ) ( <= ( + main_i main_j ) 0 ) ) ( and ( not ( <= ( + main_i ( * ( - 1 ) main_j ) ) 0 ) ) ( not ( <= ( + main_i main_j ) 0 ) ) ( = ( + main_i ( * ( - 1 ) undef3 ) ) 0 ) ( = ( + main_j ( * ( - 1 ) undef4 ) ) 0 ) ( <= ( + Nl2CT1 ( * ( + 0 Nl2main_i1 ) main_i ) ( * ( + 0 Nl2main_j1 ) main_j ) ) 0 ) ( <= ( + Nl2CT2 ( * ( + 0 Nl2main_i2 ) main_i ) ( * ( + 0 Nl2main_j2 ) main_j ) ) 0 ) ( <= ( + Nl2CT3 ( * ( + 0 Nl2main_i3 ) main_i ) ( * ( + 0 Nl2main_j3 ) main_j ) ) 0 ) ( <= ( + ( * ( - 1 ) main_i ) ( * ( - 1 ) main_j ) ) 0 ) ( <= ( + main_i main_j ) 0 ) ) ))
(assert ( or ( and ( and ( >= lam22n0 0 ) ( >= lam22n1 0 ) ( >= lam22n3 0 ) ( >= lam22n4 0 ) ( >= lam22n5 0 ) ( > ( + ( * 1 lam22n0 ) ( * 1 lam22n1 ) ( * Nl2CT1 lam22n3 ) ( * Nl2CT2 lam22n4 ) ( * Nl2CT3 lam22n5 ) ( - 1 ( - ( + ( + RFN1_CT ( * RFN1_main_i ( - 1 ) ) ) ( * RFN1_main_j 1 ) ) RFN1_CT ) ) ) 0 ) ( = ( + ( * 1 lam22n0 ) ( * 1 lam22n2 ) ( * Nl2main_i1 lam22n3 ) ( * Nl2main_i2 lam22n4 ) ( * Nl2main_i3 lam22n5 ) ( - ( - ( + 0 ( * RFN1_main_i 1 ) ) RFN1_main_i ) ) ) 0 ) ( = ( + ( * ( - 1 ) lam22n0 ) ( * ( - 1 ) lam22n1 ) ( * 1 lam22n2 ) ( * Nl2main_j1 lam22n3 ) ( * Nl2main_j2 lam22n4 ) ( * Nl2main_j3 lam22n5 ) ( - ( - ( + 0 ( * RFN1_main_j 1 ) ) RFN1_main_j ) ) ) 0 ) ) ( and ( and ( >= lam20n0 0 ) ( >= lam20n1 0 ) ( >= lam20n3 0 ) ( >= lam20n4 0 ) ( >= lam20n5 0 ) ( > ( + ( * 1 lam20n0 ) ( * 1 lam20n1 ) ( * Nl2CT1 lam20n3 ) ( * Nl2CT2 lam20n4 ) ( * Nl2CT3 lam20n5 ) ( - 1 ( - RFN1_CT ) ) ) 0 ) ( = ( + ( * 1 lam20n0 ) ( * 1 lam20n2 ) ( * Nl2main_i1 lam20n3 ) ( * Nl2main_i2 lam20n4 ) ( * Nl2main_i3 lam20n5 ) ( - ( - RFN1_main_i ) ) ) 0 ) ( = ( + ( * ( - 1 ) lam20n0 ) ( * ( - 1 ) lam20n1 ) ( * 1 lam20n2 ) ( * Nl2main_j1 lam20n3 ) ( * Nl2main_j2 lam20n4 ) ( * Nl2main_j3 lam20n5 ) ( - ( - RFN1_main_j ) ) ) 0 ) ) ( and ( >= lam21n0 0 ) ( >= lam21n1 0 ) ( >= lam21n3 0 ) ( >= lam21n4 0 ) ( >= lam21n5 0 ) ( > ( + ( * 1 lam21n0 ) ( * 1 lam21n1 ) ( * Nl2CT1 lam21n3 ) ( * Nl2CT2 lam21n4 ) ( * Nl2CT3 lam21n5 ) ( - 1 ( + ( - ( + ( + RFN1_CT ( * RFN1_main_i ( - 1 ) ) ) ( * RFN1_main_j 1 ) ) RFN1_CT ) 1 ) ) ) 0 ) ( = ( + ( * 1 lam21n0 ) ( * 1 lam21n2 ) ( * Nl2main_i1 lam21n3 ) ( * Nl2main_i2 lam21n4 ) ( * Nl2main_i3 lam21n5 ) ( - ( - ( + 0 ( * RFN1_main_i 1 ) ) RFN1_main_i ) ) ) 0 ) ( = ( + ( * ( - 1 ) lam21n0 ) ( * ( - 1 ) lam21n1 ) ( * 1 lam21n2 ) ( * Nl2main_j1 lam21n3 ) ( * Nl2main_j2 lam21n4 ) ( * Nl2main_j3 lam21n5 ) ( - ( - ( + 0 ( * RFN1_main_j 1 ) ) RFN1_main_j ) ) ) 0 ) ) ) ) ( and ( >= lam19n0 0 ) ( >= lam19n1 0 ) ( >= lam19n3 0 ) ( >= lam19n4 0 ) ( >= lam19n5 0 ) ( > ( + ( * 1 lam19n0 ) ( * 1 lam19n1 ) ( * Nl2CT1 lam19n3 ) ( * Nl2CT2 lam19n4 ) ( * Nl2CT3 lam19n5 ) ( - 1 ) ) 0 ) ( = ( + ( * 1 lam19n0 ) ( * 1 lam19n2 ) ( * Nl2main_i1 lam19n3 ) ( * Nl2main_i2 lam19n4 ) ( * Nl2main_i3 lam19n5 ) ) 0 ) ( = ( + ( * ( - 1 ) lam19n0 ) ( * ( - 1 ) lam19n1 ) ( * 1 lam19n2 ) ( * Nl2main_j1 lam19n3 ) ( * Nl2main_j2 lam19n4 ) ( * Nl2main_j3 lam19n5 ) ) 0 ) ) ))
(check-sat)
(exit)
